63 15 56 26 35 88 47 82 85 41 94 46 60 98 67 80 45 31 12 36 38 48 23 49 59 62 76 75 95 86 21 37 25 50 93 68 6 96 34 10 19 54 43 92 44 3 57 4 78 39 87 17 51 30 29 69 11 20 97 1 24 28 14 7 8 18 32 16 72 13 40 70 5 77 66 55 71 81 89 91 73 2 42 0 33 65 27 9 74 64 61 83 99 53 79 90 84 58 52 22